100 2405

23 25
69 84
81 39
62 98
40 63
8 54
75 97
4 48
16 70
71 46
82 29
21 1
40 56
72 67
4 15
65 26
65 65
57 63
12 69
61 38
15 8
48 90
3 89
71 46
29 13
96 25
42 98
71 19
16 33
66 91
43 71
59 11
89 47
43 21
5 9
73 21
51 7
83 71
24 25
21 69
43 13
21 45
19 7
47 61
98 2
45 5
54 57
76 42
90 65
43 57
11 77
76 15
15 62
24 93
44 31
3 25
81 97
93 60
30 34
91 62
28 70
62 40
98 58
44 49
51 86
50 68
93 38
20 45
38 73
71 80
36 98
74 95
14 72
58 63
49 41
77 66
2 6
12 77
91 53
55 52
15 11
66 21
65 78
99 85
87 28
29 2
8 8
17 40
60 59
8 36
12 2
37 49
32 28
42 20
99 84
12 64
32 65
22 73
70 6
95 52
